column=9;
row=9;
Board=[|0,0,0,0,1,0,0,0,7|3,0,0,0,0,7,2,8,0|2,7,0,0,5,0,6,9,1|8,0,0,0,0,0,0,0,0|0,0,7,0,0,0,0,0,6|1,2,5,0,0,0,0,0,0|0,4,0,7,9,0,0,0,0|0,0,0,0,3,4,0,0,0|9,0,0,0,0,0,0,0,3|];
horizontal=[|1,1,0,0,0,0,2,0|0,1,0,0,1,0,1,2|0,0,0,1,0,0,0,2|0,0,0,0,2,0,0,0|1,0,2,0,0,0,0,1|0,1,0,2,0,0,0,0|0,2,0,1,0,1,0,0|0,2,1,0,0,2,1,0|2,2,0,0,0,0,0,0|];
vertical=[|2,0,1,1,1,2,2,1,2|0,0,0,0,0,0,0,0,0|0,2,0,0,0,2,1,2,1|0,0,0,0,1,0,0,0,0|0,2,2,0,0,0,0,0,1|0,0,2,0,0,0,1,2,2|0,0,0,0,0,0,0,0,1|0,0,2,2,0,0,0,2,2|];
